Route #1: 1 2 5 17 14 28 22 13 12 24 18 27 21 19 23 20 53 56 63 68 1 
Route #2: 1 1 8 65 69 38 44 25 4 11 3 10 9 7 1 
Route #3: 1 51 61 40 41 48 57 45 50 60 54 26 66 1 
Route #4: 1 6 52 46 35 32 42 29 47 59 67 1 
Route #5: 1 16 74 15 31 1 
Route #6: 1 33 34 49 43 64 58 73 1 
Route #7: 1 62 70 72 71 1 
Route #8: 1 36 55 30 1 
Route #9: 1 37 1 
Route #10: 1 39 1 
Route #11: 1 75 1 

Cost 3629.64
Time 0.6407


 * Another infos *

 Iterations: 76 Time: 0.6407 sec - 0.0107 min - 0.0002 horas
0.0000 h 0.0107 min
Problem dimension: 76
